c B(3) E(3,3) R(3) E(1,3) E(3,1) R(1) B(1) B(2) E(2,3) R(2) E(3,2) E(0,3) B(0) E(3,0) R(0) E(1,1) E(2,1) E(1,2) E(1,0) E(0,1) E(2,2) E(2,0) E(0,2) E(0,0)
c 1 2 3 4 5 6 7 8 9 10 11 12 13 14 15 16 17 18 19 20 21 22 23 24
p cnf 24 40
-24 0
-16 0
-21 0
-2 0
13 15 0
7 6 0
8 10 0
1 3 0
20 -19 0
23 -22 0
12 -14 0
19 -20 0
18 -17 0
4 -5 0
22 -23 0
17 -18 0
9 -11 0
14 -12 0
5 -4 0
11 -9 0
-13 -15 0
-7 -6 0
-8 -10 0
-1 -3 0
13 7 -19 0
13 8 -22 0
13 1 -14 0
7 8 -17 0
7 1 -5 0
8 1 -11 0
15 6 -19 0
15 10 -22 0
15 3 -14 0
6 10 -17 0
6 3 -5 0
10 3 -11 0
24 20 23 12 0
19 16 18 4 0
22 17 21 9 0
14 5 11 2 0
